31655.46,41.26,45.44
28409.03,45.98,50.63
28309.85,46.14,50.81
28868.76,45.25,49.83
32261.75,40.49,44.59
33902.28,38.53,42.43
33396.76,39.11,43.07
31912.94,40.93,45.07
35137.19,37.17,40.94
25151.25,51.93,57.19
28494.37,45.84,50.48
30551.48,42.75,47.08
26800.6,48.74,53.67
30251.12,43.18,47.55
27796.22,46.99,51.75
29642.86,44.06,48.53
28407.5,45.98,50.64
31865.34,40.99,45.14
30386.15,42.99,47.34
23182.16,56.34,62.05
